pr/lpsolve-precompiler/example/second_seq.lp
min: T;
T > T1;
T > T2;
T > T3;
T > T4;
1000 > d1 + d12;
10000 > d21 + d23 + d24;
Tzk2 = 4 * d23 + Trk2;
Trk2 > Tzk1 + -10000000 * x34;
Tzk3 = 3 * d24 + Trk3;
Trk3 > Tzk1 + 10000000 * x34 + -10000000;
Tz1o1 = 3 * d1;
Trk1 > Tz1o1;
Trk1 > Tzk2 + 10000000 * x34 + -10000000;
Trk1 > Tzk3 + -10000000 * x34;
Tzk1 = Trk1 + 1 * d12 + 1 * d21;
Tzk > Tzk2;
Tzk > Tzk3;
T1 > Tzk1 + 3000 + -3 * d12 + 3 * d21 + -3 * d1;
T2 > Tzk + 60000 + 6 * d12 + -6 * d21 + -6 * d23 + -6 * d24;
T3 > Tzk2 + 1 * d23;
T4 > Tzk3 + 2 * d24;
int x34, d1, d12, d21, d23, d24;