pr/lpsolve-precompiler/example/second_seq.out

Value of objective function: 13672.00000000

Actual values of the variables:
T                           13672
T1                          13672
T2                          13672
T3                          13672
T4                          13672
d1                           1000
d12                             0
d21                          2278
d23                          6836
d24                           760
x34                             1
Tzk2                         6836
Trk2                            0
Tzk1                        11392
Tzk3                        12152
Trk3                        11392
Tz1o1                        1000
Trk1                         6836
Tzk                         12152
